(set-info :smt-lib-version 2.6)
(set-logic QF_UFNIA)
(set-info :source |
Generated by: Geoff Sutcliffe
Generated on: 2026-03-11
Generator: TPTPWorld
Application: Benchmarking automated theorem provers
Time limit: 120.0

These benchmarks are translations from the TPTP Library (Thousands of
Problems for Theorem Provers), see http://www.cs.miami.edu/~tptp/

The TPTP is maintained by Geoff Sutcliffe, and he contributed this
selection of benchmarks to SMT-LIB.  They were exported from the
v9.2.1 realease of TPTP.
|)
(set-info :category "industrial")
(set-info :status unknown)
; SZS status Success
(declare-sort $$unsorted 0)
(declare-fun tptp.a () Int)
(assert (= (* (* 5 tptp.a) tptp.a) (* 2 tptp.a)))
(assert (= (* tptp.a (+ tptp.a (* (- 1) (* (* 2 tptp.a) (+ tptp.a (* (* 3 tptp.a) (+ tptp.a (* (- 1) (* (* 4 tptp.a) (+ tptp.a (* (* 5 tptp.a) (+ tptp.a (* (- 1) (* (* 6 tptp.a) (+ tptp.a (* (* 7 tptp.a) (+ tptp.a (* (- 1) (* (* 8 tptp.a) (+ 9 tptp.a)))))))))))))))))))) 0))
(assert (let ((_let_1 (* tptp.a tptp.a))) (let ((_let_2 (* _let_1 tptp.a))) (let ((_let_3 (* (* _let_2 tptp.a) tptp.a))) (let ((_let_4 (* _let_3 tptp.a))) (let ((_let_5 (* _let_4 tptp.a))) (not (= (+ (* 2 (* _let_5 tptp.a)) (* (- 1) (+ (+ (+ (+ (+ (* 612 tptp.a) (* (- 1) _let_1)) (* (- 2) _let_2)) (* 2 _let_3)) (* (- 2) _let_4)) (* (- 2) _let_5)))) 0))))))))
(check-sat)
(exit)
